r = [
0,3,11,3,2,3,2,2,8,9,5,0
];
p = [
0,7,29,10,6,1,10,2,1,20,20,0
];
e = [
0,15,5,20,20,13,15,20,3,14,9,0
];
d = [
0,80,82,115,84,108,123,91,127,108,99,128
];
d_bar = [
0,84,97,120,87,109,128,92,128,118,109,128
];
w = [
0,3.75,0.333333333,4,6.666666667,13,3,20,3,1.4,0.9,0
];
